Input: forum-13.prec25.dzn
============================================================
Total Runtime: 2.3293 seconds
Input parsing: 0.0007 seconds
Constraint building: 0.5645 seconds
MaxSAT solving: 1.3803 seconds
============================================================

Total variables: 182834
Total clauses: 383790
MaxSAT found with cost: 0
NO SOLUTION FOUND
